experiment/data/hgs-res/Vrp-Set-A-n55/Vrp-Set-A-n55-hgs/0.hgs1.vrp
NAME : 0
COMMENT : CVRP Instance
TYPE : CVRP
DIMENSION : 55
EDGE_WEIGHT_TYPE : EUC_2D
CAPACITY : 100
NODE_COORD_SECTION
1	36.0	64.0
2	94.0	47.0
3	10.0	23.0
4	16.0	46.0
5	25.0	79.0
6	41.0	30.0
7	81.0	45.0
8	14.0	79.0
9	42.0	56.0
10	90.0	17.0
11	41.0	39.0
12	21.0	14.0
13	41.0	46.0
14	65.0	96.0
15	13.0	49.0
16	21.0	14.0
17	57.0	2.0
18	14.0	42.0
19	66.0	62.0
20	58.0	96.0
21	5.0	51.0
22	41.0	50.0
23	50.0	99.0
24	84.0	85.0
25	97.0	90.0
26	47.0	76.0
27	11.0	54.0
28	60.0	97.0
29	60.0	89.0
30	58.0	68.0
31	30.0	93.0
32	9.0	60.0
33	47.0	44.0
34	19.0	40.0
35	15.0	40.0
36	88.0	21.0
37	33.0	58.0
38	21.0	51.0
39	57.0	7.0
40	81.0	6.0
41	49.0	6.0
42	51.0	78.0
43	9.0	62.0
44	84.0	36.0
45	95.0	76.0
46	89.0	44.0
47	10.0	49.0
48	69.0	16.0
49	75.0	66.0
50	97.0	11.0
51	74.0	69.0
52	1.0	14.0
53	96.0	91.0
54	46.0	22.0
55	74.0	92.0
DEMAND_SECTION
1	0
2	3
3	12
4	25
5	4
6	11
7	20
8	21
9	10
10	20
11	13
12	14
13	16
14	17
15	11
16	36
17	6
18	7
19	21
20	11
21	17
22	22
23	10
24	19
25	21
26	23
27	19
28	15
29	22
30	7
31	11
32	15
33	22
34	12
35	24
36	25
37	2
38	15
39	18
40	13
41	3
42	20
43	14
44	10
45	10
46	66
47	10
48	7
49	12
50	24
51	5
52	18
53	7
54	11
55	12
DEPOT_SECTION
1
-1
EOF
