experiment/data/hgs-res/Vrp-Set-A-n55/Vrp-Set-A-n55-hgs/0.hgs1.tour
Route #1: 4 7 42 31 20 46 26
Route #2: 37 3 34 33 21
Route #3: 14 17 2 51 11 15 36
Route #4: 12 10 5 53 40 16 38 32
Route #5: 43 35 9 49 39 47
Route #6: 8 6 45 1
Route #7: 23 52 24 44 50 48 18
Route #8: 25 41 29
Route #9: 28 54 13 27 19 22 30
Cost 1074.46
